c This is QMaxSAT 2017 based on 14.07
c This is Glucose 3.0
c This is MiniSat 2.2.0
c WARNING: for repeatability, setting FPU to use double precision
c card = mrwto, comp = 0, pmodel = 0, narr = 10, mct = 99, verb = 0
cr firstCPXsol 0 0 0
c top = 824631
c |  Number of variables:    23328                                            |
c |  Number of clauses:      2344327                                          |
c |  Weight of hard clauses: 824631                                           |
c |  Number of soft clauses: 114660                                           |
c |  Number of unit soft clauses: 0                                           |
c |  Maximum Cardinality (by unit): 10382180     (0           )               |
c last restart ## conflicts  :  0 531 
o 568 | cpuTime 0.242693 s
c Sum of weights = 1038218
c A number of soft clauses remained = 11466
c MRWTO encoding for Pseudo-Boolean Constraints
c sizeMax=568
c No.0 Divisor=9	generated by pow1
c No.1 Divisor=9	generated by pow1
c No.2 Divisor=9	generated by pow1
c p0= 9	p1= 9	p2= 9	
c number of digits = 4
c linkingVar[0].size = 9, linkingVar[1].size = 9, linkingVar[2].size = 8, linkingVar[3].size = 1, 
c Pseudo-Boolean Constraints: 210810 variables and 1530875 clauses
c Sum of weights = 1038218
c A number of soft clauses remained = 11466
c MRWTO encoding for Pseudo-Boolean Constraints
c sizeMax=568
c No.0 Divisor=9	generated by pow1
c No.1 Divisor=9	generated by pow1
c No.2 Divisor=9	generated by pow1
c p0= 9	p1= 9	p2= 9	
c number of digits = 4
c linkingVar[0].size = 9, linkingVar[1].size = 9, linkingVar[2].size = 8, linkingVar[3].size = 1, 
c Pseudo-Boolean Constraints: 210810 variables and 1530875 clauses
c Sum of weights = 1038218
c A number of soft clauses remained = 11466
c MRWTO encoding for Pseudo-Boolean Constraints
c sizeMax=568
c No.0 Divisor=9	generated by pow1
c No.1 Divisor=9	generated by pow1
c No.2 Divisor=9	generated by pow1
c p0= 9	p1= 9	p2= 9	
c number of digits = 4
c linkingVar[0].size = 9, linkingVar[1].size = 9, linkingVar[2].size = 8, linkingVar[3].size = 1, 
c Pseudo-Boolean Constraints: 210810 variables and 1530875 clauses
c Sum of weights = 1038218
c A number of soft clauses remained = 11466
c MRWTO encoding for Pseudo-Boolean Constraints
c sizeMax=568
c No.0 Divisor=9	generated by pow1
c No.1 Divisor=9	generated by pow1
c No.2 Divisor=9	generated by pow1
c p0= 9	p1= 9	p2= 9	
c number of digits = 4
c linkingVar[0].size = 9, linkingVar[1].size = 9, linkingVar[2].size = 8, linkingVar[3].size = 1, 
c Pseudo-Boolean Constraints: 210810 variables and 1530875 clauses
c Sum of weights = 1038218
c A number of soft clauses remained = 11466
c MRWTO encoding for Pseudo-Boolean Constraints
c sizeMax=568
c No.0 Divisor=9	generated by pow1
c No.1 Divisor=9	generated by pow1
c No.2 Divisor=9	generated by pow1
c p0= 9	p1= 9	p2= 9	
c number of digits = 4
c linkingVar[0].size = 9, linkingVar[1].size = 9, linkingVar[2].size = 8, linkingVar[3].size = 1, 
c Pseudo-Boolean Constraints: 210810 variables and 1530875 clauses
c Sum of weights = 1038218
c A number of soft clauses remained = 11466
c MRWTO encoding for Pseudo-Boolean Constraints
c sizeMax=568
c No.0 Divisor=9	generated by pow1
c No.1 Divisor=9	generated by pow1
c No.2 Divisor=9	generated by pow1
c p0= 9	p1= 9	p2= 9	
c number of digits = 4
c linkingVar[0].size = 9, linkingVar[1].size = 9, linkingVar[2].size = 8, linkingVar[3].size = 1, 
c Pseudo-Boolean Constraints: 210810 variables and 1530875 clauses
c Sum of weights = 1038218
c A number of soft clauses remained = 11466
c MRWTO encoding for Pseudo-Boolean Constraints
c sizeMax=568
c No.0 Divisor=9	generated by pow1
c No.1 Divisor=9	generated by pow1
c No.2 Divisor=9	generated by pow1
c p0= 9	p1= 9	p2= 9	
c number of digits = 4
c linkingVar[0].size = 9, linkingVar[1].size = 9, linkingVar[2].size = 8, linkingVar[3].size = 1, 
c Pseudo-Boolean Constraints: 210810 variables and 1530875 clauses
c Sum of weights = 1038218
c A number of soft clauses remained = 11466
c MRWTO encoding for Pseudo-Boolean Constraints
c sizeMax=568
c No.0 Divisor=9	generated by pow1
c No.1 Divisor=9	generated by pow1
c No.2 Divisor=9	generated by pow1
c p0= 9	p1= 9	p2= 9	
c number of digits = 4
c linkingVar[0].size = 9, linkingVar[1].size = 9, linkingVar[2].size = 8, linkingVar[3].size = 1, 
c Pseudo-Boolean Constraints: 210810 variables and 1530875 clauses
c Sum of weights = 1038218
c A number of soft clauses remained = 11466
c MRWTO encoding for Pseudo-Boolean Constraints
c sizeMax=568
c No.0 Divisor=9	generated by pow1
c No.1 Divisor=9	generated by pow1
c No.2 Divisor=9	generated by pow1
c p0= 9	p1= 9	p2= 9	
c number of digits = 4
c linkingVar[0].size = 9, linkingVar[1].size = 9, linkingVar[2].size = 8, linkingVar[3].size = 1, 
c Pseudo-Boolean Constraints: 210810 variables and 1530875 clauses
c Sum of weights = 1038218
c A number of soft clauses remained = 11466
c MRWTO encoding for Pseudo-Boolean Constraints
c sizeMax=568
c No.0 Divisor=9	generated by pow1
c No.1 Divisor=9	generated by pow1
c No.2 Divisor=9	generated by pow1
c p0= 9	p1= 9	p2= 9	
c number of digits = 4
c linkingVar[0].size = 9, linkingVar[1].size = 9, linkingVar[2].size = 8, linkingVar[3].size = 1, 
c Pseudo-Boolean Constraints: 210810 variables and 1530875 clauses
s UNKNOWN
c Search is stopped by a limit (maybe time-limit)
cr positiVarArr: [ | 11(1->2) | 120(1->3) | 229(1->4) | 338(1->5) | 447(1->6) | 556(1->7) | 665(1->8) | 774(1->9) | 883(1->10) | 992(1->11) | 1101(2->12) | 1210(3->13) | 1319(4->14) | 1428(5->15) | 1537(6->16) | 1646(7->17) | 1755(8->18) | 1864(9->19) | 1973(10->20) | 2082(11->21) | 2191(12->22) | 2300(13->23) | 2409(14->24) | 2518(15->25) | 2627(16->26) | 2736(17->27) | 2845(18->28) | 2954(19->29) | 3063(20->30) | 3172(21->31) | 3281(22->32) | 3390(23->33) | 3499(24->34) | 3608(25->35) | 3717(26->36) | 3826(27->37) | 3935(28->38) | 4044(29->39) | 4153(30->40) | 4262(31->41) | 4371(32->42) | 4480(33->43) | 4589(34->44) | 4698(35->45) | 4807(36->46) | 4916(37->47) | 5025(38->48) | 5134(39->49) | 5243(40->50) | 5352(41->51) | 5461(42->52) | 5570(43->53) | 5679(44->54) | 5788(45->55) | 5897(46->56) | 6006(47->57) | 6115(48->58) | 6224(49->59) | 6333(50->60) | 6442(51->61) | 6551(52->62) | 6660(53->63) | 6769(54->64) | 6878(55->65) | 6987(56->66) | 7096(57->67) | 7205(58->68) | 7314(59->69) | 7423(60->70) | 7532(61->71) | 7641(62->72) | 7750(63->73) | 7859(64->74) | 7968(65->75) | 8077(66->76) | 8186(67->77) | 8295(68->78) | 8404(69->79) | 8513(70->80) | 8622(71->81) | 8731(72->82) | 8840(73->83) | 8949(74->84) | 9058(75->85) | 9167(76->86) | 9276(77->87) | 9385(78->88) | 9494(79->89) | 9603(80->90) | 9712(81->91) | 9821(82->92) | 9930(83->93) | 10039(84->94) | 10148(85->95) | 10257(86->96) | 10366(87->97) | 10475(88->98) | 10584(89->99) | 10594(90->1) | 10701(91->1) | 10808(92->1) | 10915(93->1) | 11022(94->1) | 11129(95->1) | 11236(96->1) | 11343(97->1) | 11450(98->1) | 11557(99->1) | ]
cr the 1-th chain: [ 1->2->12->22->32->42->52->62->72->82->92->1 ] (#non-depot=10) {#cumul.=11}
cr the 2-th chain: [ 1->3->13->23->33->43->53->63->73->83->93->1 ] (#non-depot=10) {#cumul.=21}
cr the 3-th chain: [ 1->4->14->24->34->44->54->64->74->84->94->1 ] (#non-depot=10) {#cumul.=31}
cr the 4-th chain: [ 1->5->15->25->35->45->55->65->75->85->95->1 ] (#non-depot=10) {#cumul.=41}
cr the 5-th chain: [ 1->6->16->26->36->46->56->66->76->86->96->1 ] (#non-depot=10) {#cumul.=51}
cr the 6-th chain: [ 1->7->17->27->37->47->57->67->77->87->97->1 ] (#non-depot=10) {#cumul.=61}
cr the 7-th chain: [ 1->8->18->28->38->48->58->68->78->88->98->1 ] (#non-depot=10) {#cumul.=71}
cr the 8-th chain: [ 1->9->19->29->39->49->59->69->79->89->99->1 ] (#non-depot=10) {#cumul.=81}
cr the 9-th chain: [ 1->10->20->30->40->50->60->70->80->90->1 ] (#non-depot=9) {#cumul.=90}
cr the 10-th chain: [ 1->11->21->31->41->51->61->71->81->91->1 ] (#non-depot=9) {#cumul.=99}
c Latest Answer = 0 by 1 loops
c restarts              : 17232
c conflicts             : 2832078        (787 /sec)
c decisions             : 118846110      (0.00 % random) (33035 /sec)
c propagations          : 33318663117    (9261407 /sec)
c conflict literals     : 382881732      (42.94 % deleted)
c Memory used           : 2336.00 MB
c CPU time              : 3597.58 s
